
        $ From http://www.csplib.org/Problems/prob009/data/helmut.pdf
        $ Problem number 13
        $ Sequence length : 23
        language ESSENCE' 1.0
        letting sizemaster be 140
        letting sizes be sequence(2,3,4,7,8,9,12,15,16,18,22,23,24,26,28,30,33,36,43,44,47,50,60)
        